NAME:  test1
TYPE: AGTSP
COMMENT: gtsp tours
DIMENSION:  61
GTSP_SETS: 13
EDGE_WEIGHT_TYPE: EXPLICIT
EDGE_WEIGHT_FORMAT: FULL_MATRIX 
EDGE_WEIGHT_SECTION
999999	0	999999	999999	999999	28539	28539	28539	28539	28531	28543	28543	28543	28543	28535	28502	28502	28494	999999	999999	28525	28525	28525	28517	999999	28546	28546	28546	28546	28538	28519	28519	28519	28511	999999	28522	28522	28522
999999	999999	0	999999	999999	28539	28539	28539	999999	999999	28543	28543	28543	999999	999999	28502	28502	28502	28494	999999	28525	28525	28525	28525	28517	28546	28546	28546	999999	999999	28519	28519	28519	28519	28511	28522	28522	28522
999999	999999	999999	0	999999	28539	28539	28539	28539	999999	28543	28543	28543	28543	999999	28502	28502	28502	28502	28494	28525	28525	28525	28525	999999	28546	28546	28546	28546	999999	28519	28519	28519	28519	999999	28522	28522	28522
999999	999999	999999	999999	0	28539	28539	28539	28539	28539	28543	28543	28543	28543	28543	28502	28502	28502	28502	28502	28525	28525	28525	28525	28525	28546	28546	28546	28546	28546	28519	28519	28519	28519	28519	28522	28522	28522
0	999999	999999	999999	999999	28539	28539	28539	28531	999999	28543	28543	28543	28535	999999	28502	28494	999999	999999	999999	28525	28525	28517	999999	999999	28546	28546	28546	28538	999999	28519	28519	28511	999999	999999	28522	28522	28514
28539	28539	28539	28539	28531	999999	0	999999	999999	999999	28535	28535	28535	28535	28527	28534	28534	28534	28534	28526	28546	28546	28546	28546	28538	28516	28516	28516	28508	999999	28551	28551	999999	999999	999999	28514	28514	28506
28539	28539	28539	999999	999999	999999	999999	0	999999	999999	28535	28535	28535	999999	999999	28534	28534	28534	999999	999999	28546	28546	28546	999999	999999	28516	28516	28516	28516	28508	28551	28551	28551	999999	999999	28514	28514	28514
28539	28539	28539	28539	999999	999999	999999	999999	0	999999	28535	28535	28535	28535	999999	28534	28534	28534	28534	999999	28546	28546	28546	28546	999999	28516	28516	28516	28516	999999	28551	28551	28551	28551	999999	28514	28514	28514
28539	28539	28539	28539	28539	999999	999999	999999	999999	0	28535	28535	28535	28535	28535	28534	28534	28534	28534	28534	28546	28546	28546	28546	28546	28516	28516	28516	28516	28516	28551	28551	28551	28551	28551	28514	28514	28514
28539	28539	28539	28531	999999	0	999999	999999	999999	999999	28535	28535	28535	28527	999999	28534	28534	28534	28526	999999	28546	28546	28546	28538	999999	28516	28516	28508	999999	999999	28551	28551	28551	28551	28543	28514	28506	999999
28543	28543	28543	28543	28535	28535	28535	28535	28535	28527	999999	0	999999	999999	999999	28543	28543	28543	28543	28535	28525	28525	28525	28517	999999	28520	28520	28520	28512	999999	28538	28538	28538	28538	28530	28535	28535	28535
28543	28543	28543	999999	999999	28535	28535	28535	999999	999999	999999	999999	0	999999	999999	28543	28543	28543	999999	999999	28525	28525	28525	28525	28517	28520	28520	28520	28520	28512	28538	28538	28538	999999	999999	28535	28535	28535
28543	28543	28543	28543	999999	28535	28535	28535	28535	999999	999999	999999	999999	0	999999	28543	28543	28543	28543	999999	28525	28525	28525	28525	999999	28520	28520	28520	28520	999999	28538	28538	28538	28538	999999	28535	28535	28535
28543	28543	28543	28543	28543	28535	28535	28535	28535	28535	999999	999999	999999	999999	0	28543	28543	28543	28543	28543	28525	28525	28525	28525	28525	28520	28520	28520	28520	28520	28538	28538	28538	28538	28538	28535	28535	28535
28543	28543	28543	28535	999999	28535	28535	28535	28527	999999	0	999999	999999	999999	999999	28543	28543	28543	28535	999999	28525	28525	28517	999999	999999	28520	28520	28512	999999	999999	28538	28538	28538	28530	999999	28535	28535	28535
28502	28502	28494	999999	999999	28534	28534	28534	28534	28526	28543	28543	28543	28543	28535	999999	0	999999	999999	999999	28528	28528	28528	28520	999999	28543	28543	28543	28543	28535	28523	28523	28523	28515	999999	28518	28518	28518
28502	28502	28502	28494	999999	28534	28534	28534	999999	999999	28543	28543	28543	999999	999999	999999	999999	0	999999	999999	28528	28528	28528	28528	28520	28543	28543	28543	999999	999999	28523	28523	28523	28523	28515	28518	28518	28518
28502	28502	28502	28502	28494	28534	28534	28534	28534	999999	28543	28543	28543	28543	999999	999999	999999	999999	0	999999	28528	28528	28528	28528	999999	28543	28543	28543	28543	999999	28523	28523	28523	28523	999999	28518	28518	28518
28502	28502	28502	28502	28502	28534	28534	28534	28534	28534	28543	28543	28543	28543	28543	999999	999999	999999	999999	0	28528	28528	28528	28528	28528	28543	28543	28543	28543	28543	28523	28523	28523	28523	28523	28518	28518	28518
28502	28494	999999	999999	999999	28534	28534	28534	28526	999999	28543	28543	28543	28535	999999	0	999999	999999	999999	999999	28528	28528	28520	999999	999999	28543	28543	28543	28535	999999	28523	28523	28515	999999	999999	28518	28518	28510
28525	28525	28525	28517	999999	28546	28546	28546	28546	28538	28525	28525	28525	28517	999999	28528	28528	28528	28520	999999	999999	0	999999	999999	999999	28541	28541	28541	28541	28533	28510	28510	28502	999999	999999	28536	28536	28536
28525	28525	28525	28525	28517	28546	28546	28546	999999	999999	28525	28525	28525	28525	28517	28528	28528	28528	28528	28520	999999	999999	0	999999	999999	28541	28541	28541	999999	999999	28510	28510	28510	28502	999999	28536	28536	28536
28525	28525	28525	28525	999999	28546	28546	28546	28546	999999	28525	28525	28525	28525	999999	28528	28528	28528	28528	999999	999999	999999	999999	0	999999	28541	28541	28541	28541	999999	28510	28510	28510	28510	28502	28536	28536	28536
28525	28525	28525	28525	28525	28546	28546	28546	28546	28546	28525	28525	28525	28525	28525	28528	28528	28528	28528	28528	999999	999999	999999	999999	0	28541	28541	28541	28541	28541	28510	28510	28510	28510	28510	28536	28536	28536
28525	28525	28517	999999	999999	28546	28546	28546	28538	999999	28525	28525	28517	999999	999999	28528	28528	28520	999999	999999	0	999999	999999	999999	999999	28541	28541	28541	28533	999999	28510	28502	999999	999999	999999	28536	28536	28536
28546	28546	28546	28546	28538	28516	28516	28516	28508	999999	28520	28520	28520	28512	999999	28543	28543	28543	28543	28535	28541	28541	28541	28541	28533	999999	0	999999	999999	999999	28550	28550	999999	999999	999999	28526	28526	28526
28546	28546	28546	999999	999999	28516	28516	28516	28516	28508	28520	28520	28520	28520	28512	28543	28543	28543	999999	999999	28541	28541	28541	999999	999999	999999	999999	0	999999	999999	28550	28550	28550	999999	999999	28526	28526	28526
28546	28546	28546	28546	999999	28516	28516	28516	28516	999999	28520	28520	28520	28520	999999	28543	28543	28543	28543	999999	28541	28541	28541	28541	999999	999999	999999	999999	0	999999	28550	28550	28550	28550	999999	28526	28526	28526
28546	28546	28546	28546	28546	28516	28516	28516	28516	28516	28520	28520	28520	28520	28520	28543	28543	28543	28543	28543	28541	28541	28541	28541	28541	999999	999999	999999	999999	0	28550	28550	28550	28550	28550	28526	28526	28526
28546	28546	28546	28538	999999	28516	28516	28508	999999	999999	28520	28520	28512	999999	999999	28543	28543	28543	28535	999999	28541	28541	28541	28533	999999	0	999999	999999	999999	999999	28550	28550	28550	28550	28542	28526	28526	28518
28519	28519	28519	28511	999999	28551	28551	999999	999999	999999	28538	28538	28538	28538	28530	28523	28523	28523	28515	999999	28510	28510	28502	999999	999999	28550	28550	999999	999999	999999	999999	0	999999	999999	999999	28538	28538	28538
28519	28519	28519	28519	28511	28551	28551	28551	999999	999999	28538	28538	28538	999999	999999	28523	28523	28523	28523	28515	28510	28510	28510	28502	999999	28550	28550	28550	999999	999999	999999	999999	0	999999	999999	28538	28538	28538
28519	28519	28519	28519	999999	28551	28551	28551	28551	999999	28538	28538	28538	28538	999999	28523	28523	28523	28523	999999	28510	28510	28510	28510	28502	28550	28550	28550	28550	999999	999999	999999	999999	0	999999	28538	28538	28538
28519	28519	28519	28519	28519	28551	28551	28551	28551	28551	28538	28538	28538	28538	28538	28523	28523	28523	28523	28523	28510	28510	28510	28510	28510	28550	28550	28550	28550	28550	999999	999999	999999	999999	0	28538	28538	28538
28519	28519	28511	999999	999999	28551	28551	28551	28551	28543	28538	28538	28538	28530	999999	28523	28523	28515	999999	999999	28510	28502	999999	999999	999999	28550	28550	28550	28550	28542	0	999999	999999	999999	999999	28538	28538	28538
28522	28522	28522	28514	999999	28514	28514	28506	999999	999999	28535	28535	28535	28535	28527	28518	28518	28518	28510	999999	28536	28536	28536	28536	28528	28526	28526	28526	28518	999999	28538	28538	28538	28538	28530	999999	0	999999
28522	28522	28522	28522	28514	28514	28514	28514	28506	999999	28535	28535	28535	999999	999999	28518	28518	28518	28518	28510	28536	28536	28536	999999	999999	28526	28526	28526	28526	28518	28538	28538	28538	999999	999999	999999	999999	0
28522	28522	28522	28522	999999	28514	28514	28514	28514	28506	28535	28535	28535	28535	999999	28518	28518	28518	28518	999999	28536	28536	28536	28536	999999	28526	28526	28526	28526	999999	28538	28538	28538	28538	999999	999999	999999	999999
GTSP_SET_SECTION:
1 1 2 3 4 5 -1
2 6 7 8 9 10 -1
3 11 12 13 14 15 -1
4 16 17 18 19 20 -1
5 21 22 23 24 25 -1
6 26 27 28 29 30 -1
7 31 32 33 34 35 -1
8 36 37 38 39 40 -1
9 41 42 43 44 45 -1
10 46 47 48 49 50 -1
11 51 52 53 54 55 -1
12 56 57 58 59 60 -1
13 61 -1
EOF